p cnf 393 1589
c p weight 10 -1 0
c p weight -10 1 0
c p weight 12 6.12323399573676603586882014729198302312846062338790031898128063403419218957424163818359375E-17 0
c p weight -12 1 0
c p weight 13 1 0
c p weight -13 1 0
c p weight 14 -1 0
c p weight -14 1 0
c p weight 16 -1 0
c p weight -16 1 0
c p weight 18 -0.416146836547142406903532219075714237987995147705078125 0
c p weight -18 1 0
c p weight 19 0.9092974268256817094169264237280003726482391357421875 0
c p weight -19 1 0
c p weight 20 -1 0
c p weight -20 1 0
c p weight 22 -1 0
c p weight -22 1 0
c p weight 24 6.12323399573676603586882014729198302312846062338790031898128063403419218957424163818359375E-17 0
c p weight -24 1 0
c p weight 25 1 0
c p weight -25 1 0
c p weight 26 -1 0
c p weight -26 1 0
c p weight 28 -1 0
c p weight -28 1 0
c p weight 30 -0.416146836547142406903532219075714237987995147705078125 0
c p weight -30 1 0
c p weight 31 0.9092974268256817094169264237280003726482391357421875 0
c p weight -31 1 0
c p weight 32 -1 0
c p weight -32 1 0
c p weight 35 -1 0
c p weight -35 1 0
c p weight 37 -0.9684306916316953728340877205482684075832366943359375 0
c p weight -37 1 0
c p weight 38 0.249282962726609602643890184481278993189334869384765625 0
c p weight -38 1 0
c p weight 39 -1 0
c p weight -39 1 0
c p weight 42 -1 0
c p weight -42 1 0
c p weight 44 -1 0
c p weight -44 1 0
c p weight 46 6.12323399573676603586882014729198302312846062338790031898128063403419218957424163818359375E-17 0
c p weight -46 1 0
c p weight 47 1 0
c p weight -47 1 0
c p weight 48 -1 0
c p weight -48 1 0
c p weight 50 -1 0
c p weight -50 1 0
c p weight 52 -0.416146836547142406903532219075714237987995147705078125 0
c p weight -52 1 0
c p weight 53 0.9092974268256817094169264237280003726482391357421875 0
c p weight -53 1 0
c p weight 54 -1 0
c p weight -54 1 0
c p weight 57 -1 0
c p weight -57 1 0
c p weight 59 -0.9684306916316953728340877205482684075832366943359375 0
c p weight -59 1 0
c p weight 60 0.249282962726609602643890184481278993189334869384765625 0
c p weight -60 1 0
c p weight 61 -1 0
c p weight -61 1 0
c p weight 64 -1 0
c p weight -64 1 0
c p weight 67 -1 0
c p weight -67 1 0
c p weight 69 -0.9684306916316953728340877205482684075832366943359375 0
c p weight -69 1 0
c p weight 70 0.249282962726609602643890184481278993189334869384765625 0
c p weight -70 1 0
c p weight 71 -1 0
c p weight -71 1 0
c p weight 74 -1 0
c p weight -74 1 0
c p weight 76 -1 0
c p weight -76 1 0
c p weight 78 6.12323399573676603586882014729198302312846062338790031898128063403419218957424163818359375E-17 0
c p weight -78 1 0
c p weight 79 1 0
c p weight -79 1 0
c p weight 80 -1 0
c p weight -80 1 0
c p weight 82 -1 0
c p weight -82 1 0
c p weight 84 -0.416146836547142406903532219075714237987995147705078125 0
c p weight -84 1 0
c p weight 85 0.9092974268256817094169264237280003726482391357421875 0
c p weight -85 1 0
c p weight 86 -1 0
c p weight -86 1 0
c p weight 89 -1 0
c p weight -89 1 0
c p weight 91 -0.9684306916316953728340877205482684075832366943359375 0
c p weight -91 1 0
c p weight 92 0.249282962726609602643890184481278993189334869384765625 0
c p weight -92 1 0
c p weight 93 -1 0
c p weight -93 1 0
c p weight 96 -1 0
c p weight -96 1 0
c p weight 98 -1 0
c p weight -98 1 0
c p weight 100 6.12323399573676603586882014729198302312846062338790031898128063403419218957424163818359375E-17 0
c p weight -100 1 0
c p weight 101 1 0
c p weight -101 1 0
c p weight 102 -1 0
c p weight -102 1 0
c p weight 104 -1 0
c p weight -104 1 0
c p weight 106 -0.416146836547142406903532219075714237987995147705078125 0
c p weight -106 1 0
c p weight 107 0.9092974268256817094169264237280003726482391357421875 0
c p weight -107 1 0
c p weight 108 -1 0
c p weight -108 1 0
c p weight 111 -1 0
c p weight -111 1 0
c p weight 113 -0.9684306916316953728340877205482684075832366943359375 0
c p weight -113 1 0
c p weight 114 0.249282962726609602643890184481278993189334869384765625 0
c p weight -114 1 0
c p weight 115 -1 0
c p weight -115 1 0
c p weight 118 -1 0
c p weight -118 1 0
c p weight 120 -1 0
c p weight -120 1 0
c p weight 122 6.12323399573676603586882014729198302312846062338790031898128063403419218957424163818359375E-17 0
c p weight -122 1 0
c p weight 123 1 0
c p weight -123 1 0
c p weight 124 -1 0
c p weight -124 1 0
c p weight 126 -1 0
c p weight -126 1 0
c p weight 128 -0.416146836547142406903532219075714237987995147705078125 0
c p weight -128 1 0
c p weight 129 0.9092974268256817094169264237280003726482391357421875 0
c p weight -129 1 0
c p weight 130 -1 0
c p weight -130 1 0
c p weight 133 -1 0
c p weight -133 1 0
c p weight 135 -0.9684306916316953728340877205482684075832366943359375 0
c p weight -135 1 0
c p weight 136 0.249282962726609602643890184481278993189334869384765625 0
c p weight -136 1 0
c p weight 137 -1 0
c p weight -137 1 0
c p weight 140 -1 0
c p weight -140 1 0
c p weight 143 -1 0
c p weight -143 1 0
c p weight 145 -0.9684306916316953728340877205482684075832366943359375 0
c p weight -145 1 0
c p weight 146 0.249282962726609602643890184481278993189334869384765625 0
c p weight -146 1 0
c p weight 147 -1 0
c p weight -147 1 0
c p weight 150 -1 0
c p weight -150 1 0
c p weight 152 -1 0
c p weight -152 1 0
c p weight 154 6.12323399573676603586882014729198302312846062338790031898128063403419218957424163818359375E-17 0
c p weight -154 1 0
c p weight 155 1 0
c p weight -155 1 0
c p weight 156 -1 0
c p weight -156 1 0
c p weight 158 -1 0
c p weight -158 1 0
c p weight 160 -0.416146836547142406903532219075714237987995147705078125 0
c p weight -160 1 0
c p weight 161 0.9092974268256817094169264237280003726482391357421875 0
c p weight -161 1 0
c p weight 162 -1 0
c p weight -162 1 0
c p weight 165 -1 0
c p weight -165 1 0
c p weight 167 -0.9684306916316953728340877205482684075832366943359375 0
c p weight -167 1 0
c p weight 168 0.249282962726609602643890184481278993189334869384765625 0
c p weight -168 1 0
c p weight 169 -1 0
c p weight -169 1 0
c p weight 172 -1 0
c p weight -172 1 0
c p weight 175 -1 0
c p weight -175 1 0
c p weight 177 -0.9684306916316953728340877205482684075832366943359375 0
c p weight -177 1 0
c p weight 178 0.249282962726609602643890184481278993189334869384765625 0
c p weight -178 1 0
c p weight 179 -1 0
c p weight -179 1 0
c p weight 182 -1 0
c p weight -182 1 0
c p weight 184 -1 0
c p weight -184 1 0
c p weight 186 6.12323399573676603586882014729198302312846062338790031898128063403419218957424163818359375E-17 0
c p weight -186 1 0
c p weight 187 1 0
c p weight -187 1 0
c p weight 188 -1 0
c p weight -188 1 0
c p weight 190 -1 0
c p weight -190 1 0
c p weight 192 -0.416146836547142406903532219075714237987995147705078125 0
c p weight -192 1 0
c p weight 193 0.9092974268256817094169264237280003726482391357421875 0
c p weight -193 1 0
c p weight 194 -1 0
c p weight -194 1 0
c p weight 197 -1 0
c p weight -197 1 0
c p weight 199 -0.9684306916316953728340877205482684075832366943359375 0
c p weight -199 1 0
c p weight 200 0.249282962726609602643890184481278993189334869384765625 0
c p weight -200 1 0
c p weight 201 -1 0
c p weight -201 1 0
c p weight 204 -1 0
c p weight -204 1 0
c p weight 206 1 0
c p weight -206 1 0
c p weight 207 0 0
c p weight -207 1 0
c p weight 208 -1 0
c p weight -208 1 0
c p weight 210 6.12323399573676603586882014729198302312846062338790031898128063403419218957424163818359375E-17 0
c p weight -210 1 0
c p weight 211 1 0
c p weight -211 1 0
c p weight 212 -1 0
c p weight -212 1 0
c p weight 214 -0.99639982976127627889439963837503455579280853271484375 0
c p weight -214 1 0
c p weight 215 -0.084778412651451195980456532197422347962856292724609375 0
c p weight -215 1 0
c p weight 216 -1 0
c p weight -216 1 0
c p weight 218 6.12323399573676603586882014729198302312846062338790031898128063403419218957424163818359375E-17 0
c p weight -218 1 0
c p weight 219 1 0
c p weight -219 1 0
c p weight 220 -1 0
c p weight -220 1 0
c p weight 222 -1 0
c p weight -222 1 0
c p weight 223 3.673940397442059375002259206809000622711899723162043418511757408850826323032379150390625E-16 0
c p weight -223 1 0
c p weight 224 -1 0
c p weight -224 1 0
c p weight 227 -1 0
c p weight -227 1 0
c p weight 229 -0.9684306916316953728340877205482684075832366943359375 0
c p weight -229 1 0
c p weight 230 0.249282962726609602643890184481278993189334869384765625 0
c p weight -230 1 0
c p weight 231 -1 0
c p weight -231 1 0
c p weight 234 -1 0
c p weight -234 1 0
c p weight 236 1 0
c p weight -236 1 0
c p weight 237 0 0
c p weight -237 1 0
c p weight 238 -1 0
c p weight -238 1 0
c p weight 240 6.12323399573676603586882014729198302312846062338790031898128063403419218957424163818359375E-17 0
c p weight -240 1 0
c p weight 241 1 0
c p weight -241 1 0
c p weight 242 -1 0
c p weight -242 1 0
c p weight 244 -0.68394472153486163268354403044213540852069854736328125 0
c p weight -244 1 0
c p weight 245 -0.72953383601077781417387768669868819415569305419921875 0
c p weight -245 1 0
c p weight 246 -1 0
c p weight -246 1 0
c p weight 248 6.12323399573676603586882014729198302312846062338790031898128063403419218957424163818359375E-17 0
c p weight -248 1 0
c p weight 249 1 0
c p weight -249 1 0
c p weight 250 -1 0
c p weight -250 1 0
c p weight 252 -1 0
c p weight -252 1 0
c p weight 253 3.673940397442059375002259206809000622711899723162043418511757408850826323032379150390625E-16 0
c p weight -253 1 0
c p weight 254 -1 0
c p weight -254 1 0
c p weight 257 -1 0
c p weight -257 1 0
c p weight 259 -0.9684306916316953728340877205482684075832366943359375 0
c p weight -259 1 0
c p weight 260 0.249282962726609602643890184481278993189334869384765625 0
c p weight -260 1 0
c p weight 261 -1 0
c p weight -261 1 0
c p weight 264 -1 0
c p weight -264 1 0
c p weight 266 1 0
c p weight -266 1 0
c p weight 267 0 0
c p weight -267 1 0
c p weight 268 -1 0
c p weight -268 1 0
c p weight 270 6.12323399573676603586882014729198302312846062338790031898128063403419218957424163818359375E-17 0
c p weight -270 1 0
c p weight 271 1 0
c p weight -271 1 0
c p weight 272 -1 0
c p weight -272 1 0
c p weight 274 -0.76650089542787969154602478738524951040744781494140625 0
c p weight -274 1 0
c p weight 275 -0.64224323842938091377874343379517085850238800048828125 0
c p weight -275 1 0
c p weight 276 -1 0
c p weight -276 1 0
c p weight 278 6.12323399573676603586882014729198302312846062338790031898128063403419218957424163818359375E-17 0
c p weight -278 1 0
c p weight 279 1 0
c p weight -279 1 0
c p weight 280 -1 0
c p weight -280 1 0
c p weight 282 -1 0
c p weight -282 1 0
c p weight 283 3.673940397442059375002259206809000622711899723162043418511757408850826323032379150390625E-16 0
c p weight -283 1 0
c p weight 284 -1 0
c p weight -284 1 0
c p weight 286 1 0
c p weight -286 1 0
c p weight 287 0 0
c p weight -287 1 0
c p weight 288 -1 0
c p weight -288 1 0
c p weight 290 6.12323399573676603586882014729198302312846062338790031898128063403419218957424163818359375E-17 0
c p weight -290 1 0
c p weight 291 1 0
c p weight -291 1 0
c p weight 292 -1 0
c p weight -292 1 0
c p weight 294 -0.95536987871586676046575803411542437970638275146484375 0
c p weight -294 1 0
c p weight 295 -0.2954122455864516272328046397888101637363433837890625 0
c p weight -295 1 0
c p weight 296 -1 0
c p weight -296 1 0
c p weight 298 6.12323399573676603586882014729198302312846062338790031898128063403419218957424163818359375E-17 0
c p weight -298 1 0
c p weight 299 1 0
c p weight -299 1 0
c p weight 300 -1 0
c p weight -300 1 0
c p weight 302 -1 0
c p weight -302 1 0
c p weight 303 3.673940397442059375002259206809000622711899723162043418511757408850826323032379150390625E-16 0
c p weight -303 1 0
c p weight 304 -1 0
c p weight -304 1 0
c p weight 307 -1 0
c p weight -307 1 0
c p weight 310 -1 0
c p weight -310 1 0
c p weight 313 -1 0
c p weight -313 1 0
c p weight 315 1 0
c p weight -315 1 0
c p weight 316 0 0
c p weight -316 1 0
c p weight 317 -1 0
c p weight -317 1 0
c p weight 319 6.12323399573676603586882014729198302312846062338790031898128063403419218957424163818359375E-17 0
c p weight -319 1 0
c p weight 320 1 0
c p weight -320 1 0
c p weight 321 -1 0
c p weight -321 1 0
c p weight 323 -0.9965717412004699848893096714164130389690399169921875 0
c p weight -323 1 0
c p weight 324 -0.082733092778304484493645531983929686248302459716796875 0
c p weight -324 1 0
c p weight 325 -1 0
c p weight -325 1 0
c p weight 327 6.12323399573676603586882014729198302312846062338790031898128063403419218957424163818359375E-17 0
c p weight -327 1 0
c p weight 328 1 0
c p weight -328 1 0
c p weight 329 -1 0
c p weight -329 1 0
c p weight 331 -1 0
c p weight -331 1 0
c p weight 332 3.673940397442059375002259206809000622711899723162043418511757408850826323032379150390625E-16 0
c p weight -332 1 0
c p weight 333 -1 0
c p weight -333 1 0
c p weight 335 1 0
c p weight -335 1 0
c p weight 336 0 0
c p weight -336 1 0
c p weight 337 -1 0
c p weight -337 1 0
c p weight 339 6.12323399573676603586882014729198302312846062338790031898128063403419218957424163818359375E-17 0
c p weight -339 1 0
c p weight 340 1 0
c p weight -340 1 0
c p weight 341 -1 0
c p weight -341 1 0
c p weight 343 -0.95025841191023230347667549722245894372463226318359375 0
c p weight -343 1 0
c p weight 344 -0.31146259902890938153774413876817561686038970947265625 0
c p weight -344 1 0
c p weight 345 -1 0
c p weight -345 1 0
c p weight 347 6.12323399573676603586882014729198302312846062338790031898128063403419218957424163818359375E-17 0
c p weight -347 1 0
c p weight 348 1 0
c p weight -348 1 0
c p weight 349 -1 0
c p weight -349 1 0
c p weight 351 -1 0
c p weight -351 1 0
c p weight 352 3.673940397442059375002259206809000622711899723162043418511757408850826323032379150390625E-16 0
c p weight -352 1 0
c p weight 353 -1 0
c p weight -353 1 0
c p weight 355 1 0
c p weight -355 1 0
c p weight 356 0 0
c p weight -356 1 0
c p weight 357 -1 0
c p weight -357 1 0
c p weight 359 6.12323399573676603586882014729198302312846062338790031898128063403419218957424163818359375E-17 0
c p weight -359 1 0
c p weight 360 1 0
c p weight -360 1 0
c p weight 361 -1 0
c p weight -361 1 0
c p weight 363 -0.84291879781328404863671721614082343876361846923828125 0
c p weight -363 1 0
c p weight 364 -0.53804079798190773686883403570391237735748291015625 0
c p weight -364 1 0
c p weight 365 -1 0
c p weight -365 1 0
c p weight 367 6.12323399573676603586882014729198302312846062338790031898128063403419218957424163818359375E-17 0
c p weight -367 1 0
c p weight 368 1 0
c p weight -368 1 0
c p weight 369 -1 0
c p weight -369 1 0
c p weight 371 -1 0
c p weight -371 1 0
c p weight 372 3.673940397442059375002259206809000622711899723162043418511757408850826323032379150390625E-16 0
c p weight -372 1 0
c p weight 373 -1 0
c p weight -373 1 0
c p weight 375 1 0
c p weight -375 1 0
c p weight 376 0 0
c p weight -376 1 0
c p weight 377 -1 0
c p weight -377 1 0
c p weight 379 6.12323399573676603586882014729198302312846062338790031898128063403419218957424163818359375E-17 0
c p weight -379 1 0
c p weight 380 1 0
c p weight -380 1 0
c p weight 381 -1 0
c p weight -381 1 0
c p weight 383 -0.68896035160464041968708670538035221397876739501953125 0
c p weight -383 1 0
c p weight 384 -0.7247990300192255208600045079947449266910552978515625 0
c p weight -384 1 0
c p weight 385 -1 0
c p weight -385 1 0
c p weight 387 6.12323399573676603586882014729198302312846062338790031898128063403419218957424163818359375E-17 0
c p weight -387 1 0
c p weight 388 1 0
c p weight -388 1 0
c p weight 389 -1 0
c p weight -389 1 0
c p weight 391 -1 0
c p weight -391 1 0
c p weight 392 3.673940397442059375002259206809000622711899723162043418511757408850826323032379150390625E-16 0
c p weight -392 1 0
c p weight 393 -1 0
c p weight -393 1 0
-7 0
-5 0
-3 0
-1 0
9 1 -2 0
9 -1 2 0
-9 1 2 0
-9 -1 -2 0
-10 1 0
-10 2 0
10 -1 -2 0
11 -1 9 0
-11 1 9 0
-12 9 0
11 -12 -1 0
-11 -12 1 0
11 12 1 -9 0
-11 12 -1 -9 0
-13 9 0
11 -13 1 0
-11 -13 -1 0
11 13 -1 -9 0
-11 13 1 -9 0
-14 11 0
-14 9 0
-14 -1 0
14 -11 1 -9 0
15 11 -9 0
15 -11 9 0
-15 11 9 0
-15 -11 -9 0
-16 11 0
-16 9 0
16 -11 -9 0
17 11 -15 0
-17 11 15 0
-18 11 0
17 -18 -15 0
-17 -18 15 0
17 18 -11 15 0
-17 18 -11 -15 0
-19 11 0
17 -19 15 0
-17 -19 -15 0
17 19 -11 -15 0
-17 19 -11 15 0
-20 11 0
-20 15 0
-20 -17 0
20 17 -11 -15 0
21 3 -4 0
21 -3 4 0
-21 3 4 0
-21 -3 -4 0
-22 3 0
-22 4 0
22 -3 -4 0
23 -3 21 0
-23 3 21 0
-24 21 0
23 -24 -3 0
-23 -24 3 0
23 24 3 -21 0
-23 24 -3 -21 0
-25 21 0
23 -25 3 0
-23 -25 -3 0
23 25 -3 -21 0
-23 25 3 -21 0
-26 23 0
-26 21 0
-26 -3 0
26 -23 3 -21 0
27 23 -21 0
27 -23 21 0
-27 23 21 0
-27 -23 -21 0
-28 23 0
-28 21 0
28 -23 -21 0
29 23 -27 0
-29 23 27 0
-30 23 0
29 -30 -27 0
-29 -30 27 0
29 30 -23 27 0
-29 30 -23 -27 0
-31 23 0
29 -31 27 0
-29 -31 -27 0
29 31 -23 -27 0
-29 31 -23 27 0
-32 23 0
-32 27 0
-32 -29 0
32 29 -23 -27 0
33 11 -23 0
33 -11 23 0
-33 11 23 0
-33 -11 -23 0
34 17 -29 0
34 -17 29 0
-34 17 29 0
-34 -17 -29 0
-35 11 0
-35 29 0
-35 23 -17 0
-35 -23 17 0
35 -11 23 17 -29 0
35 -11 -23 -17 -29 0
36 33 -29 0
-36 33 29 0
-37 33 0
36 -37 -29 0
-36 -37 29 0
36 37 -33 29 0
-36 37 -33 -29 0
-38 33 0
36 -38 29 0
-36 -38 -29 0
36 38 -33 -29 0
-36 38 -33 29 0
-39 33 0
-39 29 0
-39 -36 0
39 36 -33 -29 0
40 11 -33 0
40 -11 33 0
-40 11 33 0
-40 -11 -33 0
41 34 -36 0
41 -34 36 0
-41 34 36 0
-41 -34 -36 0
-42 11 0
-42 36 0
-42 33 -34 0
-42 -33 34 0
42 -11 33 34 -36 0
42 -11 -33 -34 -36 0
43 5 -6 0
43 -5 6 0
-43 5 6 0
-43 -5 -6 0
-44 5 0
-44 6 0
44 -5 -6 0
45 -5 43 0
-45 5 43 0
-46 43 0
45 -46 -5 0
-45 -46 5 0
45 46 5 -43 0
-45 46 -5 -43 0
-47 43 0
45 -47 5 0
-45 -47 -5 0
45 47 -5 -43 0
-45 47 5 -43 0
-48 45 0
-48 43 0
-48 -5 0
48 -45 5 -43 0
49 45 -43 0
49 -45 43 0
-49 45 43 0
-49 -45 -43 0
-50 45 0
-50 43 0
50 -45 -43 0
51 45 -49 0
-51 45 49 0
-52 45 0
51 -52 -49 0
-51 -52 49 0
51 52 -45 49 0
-51 52 -45 -49 0
-53 45 0
51 -53 49 0
-51 -53 -49 0
51 53 -45 -49 0
-51 53 -45 49 0
-54 45 0
-54 49 0
-54 -51 0
54 51 -45 -49 0
55 11 -45 0
55 -11 45 0
-55 11 45 0
-55 -11 -45 0
56 41 -51 0
56 -41 51 0
-56 41 51 0
-56 -41 -51 0
-57 11 0
-57 51 0
-57 45 -41 0
-57 -45 41 0
57 -11 45 41 -51 0
57 -11 -45 -41 -51 0
58 55 -51 0
-58 55 51 0
-59 55 0
58 -59 -51 0
-58 -59 51 0
58 59 -55 51 0
-58 59 -55 -51 0
-60 55 0
58 -60 51 0
-58 -60 -51 0
58 60 -55 -51 0
-58 60 -55 51 0
-61 55 0
-61 51 0
-61 -58 0
61 58 -55 -51 0
62 11 -55 0
62 -11 55 0
-62 11 55 0
-62 -11 -55 0
63 56 -58 0
63 -56 58 0
-63 56 58 0
-63 -56 -58 0
-64 11 0
-64 58 0
-64 55 -56 0
-64 -55 56 0
64 -11 55 56 -58 0
64 -11 -55 -56 -58 0
65 40 -62 0
65 -40 62 0
-65 40 62 0
-65 -40 -62 0
66 36 -58 0
66 -36 58 0
-66 36 58 0
-66 -36 -58 0
-67 40 0
-67 58 0
-67 62 -36 0
-67 -62 36 0
67 -40 62 36 -58 0
67 -40 -62 -36 -58 0
68 65 -58 0
-68 65 58 0
-69 65 0
68 -69 -58 0
-68 -69 58 0
68 69 -65 58 0
-68 69 -65 -58 0
-70 65 0
68 -70 58 0
-68 -70 -58 0
68 70 -65 -58 0
-68 70 -65 58 0
-71 65 0
-71 58 0
-71 -68 0
71 68 -65 -58 0
72 40 -65 0
72 -40 65 0
-72 40 65 0
-72 -40 -65 0
73 66 -68 0
73 -66 68 0
-73 66 68 0
-73 -66 -68 0
-74 40 0
-74 68 0
-74 65 -66 0
-74 -65 66 0
74 -40 65 66 -68 0
74 -40 -65 -66 -68 0
75 7 -8 0
75 -7 8 0
-75 7 8 0
-75 -7 -8 0
-76 7 0
-76 8 0
76 -7 -8 0
77 -7 75 0
-77 7 75 0
-78 75 0
77 -78 -7 0
-77 -78 7 0
77 78 7 -75 0
-77 78 -7 -75 0
-79 75 0
77 -79 7 0
-77 -79 -7 0
77 79 -7 -75 0
-77 79 7 -75 0
-80 77 0
-80 75 0
-80 -7 0
80 -77 7 -75 0
81 77 -75 0
81 -77 75 0
-81 77 75 0
-81 -77 -75 0
-82 77 0
-82 75 0
82 -77 -75 0
83 77 -81 0
-83 77 81 0
-84 77 0
83 -84 -81 0
-83 -84 81 0
83 84 -77 81 0
-83 84 -77 -81 0
-85 77 0
83 -85 81 0
-83 -85 -81 0
83 85 -77 -81 0
-83 85 -77 81 0
-86 77 0
-86 81 0
-86 -83 0
86 83 -77 -81 0
87 11 -77 0
87 -11 77 0
-87 11 77 0
-87 -11 -77 0
88 63 -83 0
88 -63 83 0
-88 63 83 0
-88 -63 -83 0
-89 11 0
-89 83 0
-89 77 -63 0
-89 -77 63 0
89 -11 77 63 -83 0
89 -11 -77 -63 -83 0
90 87 -83 0
-90 87 83 0
-91 87 0
90 -91 -83 0
-90 -91 83 0
90 91 -87 83 0
-90 91 -87 -83 0
-92 87 0
90 -92 83 0
-90 -92 -83 0
90 92 -87 -83 0
-90 92 -87 83 0
-93 87 0
-93 83 0
-93 -90 0
93 90 -87 -83 0
94 11 -87 0
94 -11 87 0
-94 11 87 0
-94 -11 -87 0
95 88 -90 0
95 -88 90 0
-95 88 90 0
-95 -88 -90 0
-96 11 0
-96 90 0
-96 87 -88 0
-96 -87 88 0
96 -11 87 88 -90 0
96 -11 -87 -88 -90 0
97 11 -95 0
97 -11 95 0
-97 11 95 0
-97 -11 -95 0
-98 11 0
-98 95 0
98 -11 -95 0
99 -11 97 0
-99 11 97 0
-100 97 0
99 -100 -11 0
-99 -100 11 0
99 100 11 -97 0
-99 100 -11 -97 0
-101 97 0
99 -101 11 0
-99 -101 -11 0
99 101 -11 -97 0
-99 101 11 -97 0
-102 99 0
-102 97 0
-102 -11 0
102 -99 11 -97 0
103 99 -97 0
103 -99 97 0
-103 99 97 0
-103 -99 -97 0
-104 99 0
-104 97 0
104 -99 -97 0
105 99 -103 0
-105 99 103 0
-106 99 0
105 -106 -103 0
-105 -106 103 0
105 106 -99 103 0
-105 106 -99 -103 0
-107 99 0
105 -107 103 0
-105 -107 -103 0
105 107 -99 -103 0
-105 107 -99 103 0
-108 99 0
-108 103 0
-108 -105 0
108 105 -99 -103 0
109 40 -94 0
109 -40 94 0
-109 40 94 0
-109 -40 -94 0
110 73 -90 0
110 -73 90 0
-110 73 90 0
-110 -73 -90 0
-111 40 0
-111 90 0
-111 94 -73 0
-111 -94 73 0
111 -40 94 73 -90 0
111 -40 -94 -73 -90 0
112 109 -90 0
-112 109 90 0
-113 109 0
112 -113 -90 0
-112 -113 90 0
112 113 -109 90 0
-112 113 -109 -90 0
-114 109 0
112 -114 90 0
-112 -114 -90 0
112 114 -109 -90 0
-112 114 -109 90 0
-115 109 0
-115 90 0
-115 -112 0
115 112 -109 -90 0
116 40 -109 0
116 -40 109 0
-116 40 109 0
-116 -40 -109 0
117 110 -112 0
117 -110 112 0
-117 110 112 0
-117 -110 -112 0
-118 40 0
-118 112 0
-118 109 -110 0
-118 -109 110 0
118 -40 109 110 -112 0
118 -40 -109 -110 -112 0
119 40 -117 0
119 -40 117 0
-119 40 117 0
-119 -40 -117 0
-120 40 0
-120 117 0
120 -40 -117 0
121 -40 119 0
-121 40 119 0
-122 119 0
121 -122 -40 0
-121 -122 40 0
121 122 40 -119 0
-121 122 -40 -119 0
-123 119 0
121 -123 40 0
-121 -123 -40 0
121 123 -40 -119 0
-121 123 40 -119 0
-124 121 0
-124 119 0
-124 -40 0
124 -121 40 -119 0
125 121 -119 0
125 -121 119 0
-125 121 119 0
-125 -121 -119 0
-126 121 0
-126 119 0
126 -121 -119 0
127 121 -125 0
-127 121 125 0
-128 121 0
127 -128 -125 0
-127 -128 125 0
127 128 -121 125 0
-127 128 -121 -125 0
-129 121 0
127 -129 125 0
-127 -129 -125 0
127 129 -121 -125 0
-127 129 -121 125 0
-130 121 0
-130 125 0
-130 -127 0
130 127 -121 -125 0
131 99 -121 0
131 -99 121 0
-131 99 121 0
-131 -99 -121 0
132 105 -127 0
132 -105 127 0
-132 105 127 0
-132 -105 -127 0
-133 99 0
-133 127 0
-133 121 -105 0
-133 -121 105 0
133 -99 121 105 -127 0
133 -99 -121 -105 -127 0
134 131 -127 0
-134 131 127 0
-135 131 0
134 -135 -127 0
-134 -135 127 0
134 135 -131 127 0
-134 135 -131 -127 0
-136 131 0
134 -136 127 0
-134 -136 -127 0
134 136 -131 -127 0
-134 136 -131 127 0
-137 131 0
-137 127 0
-137 -134 0
137 134 -131 -127 0
138 99 -131 0
138 -99 131 0
-138 99 131 0
-138 -99 -131 0
139 132 -134 0
139 -132 134 0
-139 132 134 0
-139 -132 -134 0
-140 99 0
-140 134 0
-140 131 -132 0
-140 -131 132 0
140 -99 131 132 -134 0
140 -99 -131 -132 -134 0
141 72 -116 0
141 -72 116 0
-141 72 116 0
-141 -72 -116 0
142 68 -112 0
142 -68 112 0
-142 68 112 0
-142 -68 -112 0
-143 72 0
-143 112 0
-143 116 -68 0
-143 -116 68 0
143 -72 116 68 -112 0
143 -72 -116 -68 -112 0
144 141 -112 0
-144 141 112 0
-145 141 0
144 -145 -112 0
-144 -145 112 0
144 145 -141 112 0
-144 145 -141 -112 0
-146 141 0
144 -146 112 0
-144 -146 -112 0
144 146 -141 -112 0
-144 146 -141 112 0
-147 141 0
-147 112 0
-147 -144 0
147 144 -141 -112 0
148 72 -141 0
148 -72 141 0
-148 72 141 0
-148 -72 -141 0
149 142 -144 0
149 -142 144 0
-149 142 144 0
-149 -142 -144 0
-150 72 0
-150 144 0
-150 141 -142 0
-150 -141 142 0
150 -72 141 142 -144 0
150 -72 -141 -142 -144 0
151 72 -149 0
151 -72 149 0
-151 72 149 0
-151 -72 -149 0
-152 72 0
-152 149 0
152 -72 -149 0
153 -72 151 0
-153 72 151 0
-154 151 0
153 -154 -72 0
-153 -154 72 0
153 154 72 -151 0
-153 154 -72 -151 0
-155 151 0
153 -155 72 0
-153 -155 -72 0
153 155 -72 -151 0
-153 155 72 -151 0
-156 153 0
-156 151 0
-156 -72 0
156 -153 72 -151 0
157 153 -151 0
157 -153 151 0
-157 153 151 0
-157 -153 -151 0
-158 153 0
-158 151 0
158 -153 -151 0
159 153 -157 0
-159 153 157 0
-160 153 0
159 -160 -157 0
-159 -160 157 0
159 160 -153 157 0
-159 160 -153 -157 0
-161 153 0
159 -161 157 0
-159 -161 -157 0
159 161 -153 -157 0
-159 161 -153 157 0
-162 153 0
-162 157 0
-162 -159 0
162 159 -153 -157 0
163 99 -153 0
163 -99 153 0
-163 99 153 0
-163 -99 -153 0
164 139 -159 0
164 -139 159 0
-164 139 159 0
-164 -139 -159 0
-165 99 0
-165 159 0
-165 153 -139 0
-165 -153 139 0
165 -99 153 139 -159 0
165 -99 -153 -139 -159 0
166 163 -159 0
-166 163 159 0
-167 163 0
166 -167 -159 0
-166 -167 159 0
166 167 -163 159 0
-166 167 -163 -159 0
-168 163 0
166 -168 159 0
-166 -168 -159 0
166 168 -163 -159 0
-166 168 -163 159 0
-169 163 0
-169 159 0
-169 -166 0
169 166 -163 -159 0
170 99 -163 0
170 -99 163 0
-170 99 163 0
-170 -99 -163 0
171 164 -166 0
171 -164 166 0
-171 164 166 0
-171 -164 -166 0
-172 99 0
-172 166 0
-172 163 -164 0
-172 -163 164 0
172 -99 163 164 -166 0
172 -99 -163 -164 -166 0
173 138 -170 0
173 -138 170 0
-173 138 170 0
-173 -138 -170 0
174 134 -166 0
174 -134 166 0
-174 134 166 0
-174 -134 -166 0
-175 138 0
-175 166 0
-175 170 -134 0
-175 -170 134 0
175 -138 170 134 -166 0
175 -138 -170 -134 -166 0
176 173 -166 0
-176 173 166 0
-177 173 0
176 -177 -166 0
-176 -177 166 0
176 177 -173 166 0
-176 177 -173 -166 0
-178 173 0
176 -178 166 0
-176 -178 -166 0
176 178 -173 -166 0
-176 178 -173 166 0
-179 173 0
-179 166 0
-179 -176 0
179 176 -173 -166 0
180 138 -173 0
180 -138 173 0
-180 138 173 0
-180 -138 -173 0
181 174 -176 0
181 -174 176 0
-181 174 176 0
-181 -174 -176 0
-182 138 0
-182 176 0
-182 173 -174 0
-182 -173 174 0
182 -138 173 174 -176 0
182 -138 -173 -174 -176 0
183 148 -144 0
183 -148 144 0
-183 148 144 0
-183 -148 -144 0
-184 148 0
-184 144 0
184 -148 -144 0
185 -148 183 0
-185 148 183 0
-186 183 0
185 -186 -148 0
-185 -186 148 0
185 186 148 -183 0
-185 186 -148 -183 0
-187 183 0
185 -187 148 0
-185 -187 -148 0
185 187 -148 -183 0
-185 187 148 -183 0
-188 185 0
-188 183 0
-188 -148 0
188 -185 148 -183 0
189 185 -183 0
189 -185 183 0
-189 185 183 0
-189 -185 -183 0
-190 185 0
-190 183 0
190 -185 -183 0
191 185 -189 0
-191 185 189 0
-192 185 0
191 -192 -189 0
-191 -192 189 0
191 192 -185 189 0
-191 192 -185 -189 0
-193 185 0
191 -193 189 0
-191 -193 -189 0
191 193 -185 -189 0
-191 193 -185 189 0
-194 185 0
-194 189 0
-194 -191 0
194 191 -185 -189 0
195 99 -185 0
195 -99 185 0
-195 99 185 0
-195 -99 -185 0
196 171 -191 0
196 -171 191 0
-196 171 191 0
-196 -171 -191 0
-197 99 0
-197 191 0
-197 185 -171 0
-197 -185 171 0
197 -99 185 171 -191 0
197 -99 -185 -171 -191 0
198 195 -191 0
-198 195 191 0
-199 195 0
198 -199 -191 0
-198 -199 191 0
198 199 -195 191 0
-198 199 -195 -191 0
-200 195 0
198 -200 191 0
-198 -200 -191 0
198 200 -195 -191 0
-198 200 -195 191 0
-201 195 0
-201 191 0
-201 -198 0
201 198 -195 -191 0
202 99 -195 0
202 -99 195 0
-202 99 195 0
-202 -99 -195 0
203 196 -198 0
203 -196 198 0
-203 196 198 0
-203 -196 -198 0
-204 99 0
-204 198 0
-204 195 -196 0
-204 -195 196 0
204 -99 195 196 -198 0
204 -99 -195 -196 -198 0
205 99 -203 0
-205 99 203 0
-206 99 0
205 -206 -203 0
-205 -206 203 0
205 206 -99 203 0
-205 206 -99 -203 0
-207 99 0
205 -207 203 0
-205 -207 -203 0
205 207 -99 -203 0
-205 207 -99 203 0
-208 99 0
-208 203 0
-208 -205 0
208 205 -99 -203 0
209 -99 205 0
-209 99 205 0
-210 205 0
209 -210 -99 0
-209 -210 99 0
209 210 99 -205 0
-209 210 -99 -205 0
-211 205 0
209 -211 99 0
-209 -211 -99 0
209 211 -99 -205 0
-209 211 99 -205 0
-212 209 0
-212 205 0
-212 -99 0
212 -209 99 -205 0
213 209 -205 0
-213 209 205 0
-214 209 0
213 -214 -205 0
-213 -214 205 0
213 214 -209 205 0
-213 214 -209 -205 0
-215 209 0
213 -215 205 0
-213 -215 -205 0
213 215 -209 -205 0
-213 215 -209 205 0
-216 209 0
-216 205 0
-216 -213 0
216 213 -209 -205 0
217 -209 213 0
-217 209 213 0
-218 213 0
217 -218 -209 0
-217 -218 209 0
217 218 209 -213 0
-217 218 -209 -213 0
-219 213 0
217 -219 209 0
-217 -219 -209 0
217 219 -209 -213 0
-217 219 209 -213 0
-220 217 0
-220 213 0
-220 -209 0
220 -217 209 -213 0
221 217 -213 0
-221 217 213 0
-222 217 0
221 -222 -213 0
-221 -222 213 0
221 222 -217 213 0
-221 222 -217 -213 0
-223 217 0
221 -223 213 0
-221 -223 -213 0
221 223 -217 -213 0
-221 223 -217 213 0
-224 217 0
-224 213 0
-224 -221 0
224 221 -217 -213 0
225 138 -202 0
225 -138 202 0
-225 138 202 0
-225 -138 -202 0
226 181 -198 0
226 -181 198 0
-226 181 198 0
-226 -181 -198 0
-227 138 0
-227 198 0
-227 202 -181 0
-227 -202 181 0
227 -138 202 181 -198 0
227 -138 -202 -181 -198 0
228 225 -198 0
-228 225 198 0
-229 225 0
228 -229 -198 0
-228 -229 198 0
228 229 -225 198 0
-228 229 -225 -198 0
-230 225 0
228 -230 198 0
-228 -230 -198 0
228 230 -225 -198 0
-228 230 -225 198 0
-231 225 0
-231 198 0
-231 -228 0
231 228 -225 -198 0
232 138 -225 0
232 -138 225 0
-232 138 225 0
-232 -138 -225 0
233 226 -228 0
233 -226 228 0
-233 226 228 0
-233 -226 -228 0
-234 138 0
-234 228 0
-234 225 -226 0
-234 -225 226 0
234 -138 225 226 -228 0
234 -138 -225 -226 -228 0
235 138 -233 0
-235 138 233 0
-236 138 0
235 -236 -233 0
-235 -236 233 0
235 236 -138 233 0
-235 236 -138 -233 0
-237 138 0
235 -237 233 0
-235 -237 -233 0
235 237 -138 -233 0
-235 237 -138 233 0
-238 138 0
-238 233 0
-238 -235 0
238 235 -138 -233 0
239 -138 235 0
-239 138 235 0
-240 235 0
239 -240 -138 0
-239 -240 138 0
239 240 138 -235 0
-239 240 -138 -235 0
-241 235 0
239 -241 138 0
-239 -241 -138 0
239 241 -138 -235 0
-239 241 138 -235 0
-242 239 0
-242 235 0
-242 -138 0
242 -239 138 -235 0
243 239 -235 0
-243 239 235 0
-244 239 0
243 -244 -235 0
-243 -244 235 0
243 244 -239 235 0
-243 244 -239 -235 0
-245 239 0
243 -245 235 0
-243 -245 -235 0
243 245 -239 -235 0
-243 245 -239 235 0
-246 239 0
-246 235 0
-246 -243 0
246 243 -239 -235 0
247 -239 243 0
-247 239 243 0
-248 243 0
247 -248 -239 0
-247 -248 239 0
247 248 239 -243 0
-247 248 -239 -243 0
-249 243 0
247 -249 239 0
-247 -249 -239 0
247 249 -239 -243 0
-247 249 239 -243 0
-250 247 0
-250 243 0
-250 -239 0
250 -247 239 -243 0
251 247 -243 0
-251 247 243 0
-252 247 0
251 -252 -243 0
-251 -252 243 0
251 252 -247 243 0
-251 252 -247 -243 0
-253 247 0
251 -253 243 0
-251 -253 -243 0
251 253 -247 -243 0
-251 253 -247 243 0
-254 247 0
-254 243 0
-254 -251 0
254 251 -247 -243 0
255 180 -232 0
255 -180 232 0
-255 180 232 0
-255 -180 -232 0
256 176 -228 0
256 -176 228 0
-256 176 228 0
-256 -176 -228 0
-257 180 0
-257 228 0
-257 232 -176 0
-257 -232 176 0
257 -180 232 176 -228 0
257 -180 -232 -176 -228 0
258 255 -228 0
-258 255 228 0
-259 255 0
258 -259 -228 0
-258 -259 228 0
258 259 -255 228 0
-258 259 -255 -228 0
-260 255 0
258 -260 228 0
-258 -260 -228 0
258 260 -255 -228 0
-258 260 -255 228 0
-261 255 0
-261 228 0
-261 -258 0
261 258 -255 -228 0
262 180 -255 0
262 -180 255 0
-262 180 255 0
-262 -180 -255 0
263 256 -258 0
263 -256 258 0
-263 256 258 0
-263 -256 -258 0
-264 180 0
-264 258 0
-264 255 -256 0
-264 -255 256 0
264 -180 255 256 -258 0
264 -180 -255 -256 -258 0
265 180 -263 0
-265 180 263 0
-266 180 0
265 -266 -263 0
-265 -266 263 0
265 266 -180 263 0
-265 266 -180 -263 0
-267 180 0
265 -267 263 0
-265 -267 -263 0
265 267 -180 -263 0
-265 267 -180 263 0
-268 180 0
-268 263 0
-268 -265 0
268 265 -180 -263 0
269 -180 265 0
-269 180 265 0
-270 265 0
269 -270 -180 0
-269 -270 180 0
269 270 180 -265 0
-269 270 -180 -265 0
-271 265 0
269 -271 180 0
-269 -271 -180 0
269 271 -180 -265 0
-269 271 180 -265 0
-272 269 0
-272 265 0
-272 -180 0
272 -269 180 -265 0
273 269 -265 0
-273 269 265 0
-274 269 0
273 -274 -265 0
-273 -274 265 0
273 274 -269 265 0
-273 274 -269 -265 0
-275 269 0
273 -275 265 0
-273 -275 -265 0
273 275 -269 -265 0
-273 275 -269 265 0
-276 269 0
-276 265 0
-276 -273 0
276 273 -269 -265 0
277 -269 273 0
-277 269 273 0
-278 273 0
277 -278 -269 0
-277 -278 269 0
277 278 269 -273 0
-277 278 -269 -273 0
-279 273 0
277 -279 269 0
-277 -279 -269 0
277 279 -269 -273 0
-277 279 269 -273 0
-280 277 0
-280 273 0
-280 -269 0
280 -277 269 -273 0
281 277 -273 0
-281 277 273 0
-282 277 0
281 -282 -273 0
-281 -282 273 0
281 282 -277 273 0
-281 282 -277 -273 0
-283 277 0
281 -283 273 0
-281 -283 -273 0
281 283 -277 -273 0
-281 283 -277 273 0
-284 277 0
-284 273 0
-284 -281 0
284 281 -277 -273 0
285 262 -258 0
-285 262 258 0
-286 262 0
285 -286 -258 0
-285 -286 258 0
285 286 -262 258 0
-285 286 -262 -258 0
-287 262 0
285 -287 258 0
-285 -287 -258 0
285 287 -262 -258 0
-285 287 -262 258 0
-288 262 0
-288 258 0
-288 -285 0
288 285 -262 -258 0
289 -262 285 0
-289 262 285 0
-290 285 0
289 -290 -262 0
-289 -290 262 0
289 290 262 -285 0
-289 290 -262 -285 0
-291 285 0
289 -291 262 0
-289 -291 -262 0
289 291 -262 -285 0
-289 291 262 -285 0
-292 289 0
-292 285 0
-292 -262 0
292 -289 262 -285 0
293 289 -285 0
-293 289 285 0
-294 289 0
293 -294 -285 0
-293 -294 285 0
293 294 -289 285 0
-293 294 -289 -285 0
-295 289 0
293 -295 285 0
-293 -295 -285 0
293 295 -289 -285 0
-293 295 -289 285 0
-296 289 0
-296 285 0
-296 -293 0
296 293 -289 -285 0
297 -289 293 0
-297 289 293 0
-298 293 0
297 -298 -289 0
-297 -298 289 0
297 298 289 -293 0
-297 298 -289 -293 0
-299 293 0
297 -299 289 0
-297 -299 -289 0
297 299 -289 -293 0
-297 299 289 -293 0
-300 297 0
-300 293 0
-300 -289 0
300 -297 289 -293 0
301 297 -293 0
-301 297 293 0
-302 297 0
301 -302 -293 0
-301 -302 293 0
301 302 -297 293 0
-301 302 -297 -293 0
-303 297 0
301 -303 293 0
-301 -303 -293 0
301 303 -297 -293 0
-301 303 -297 293 0
-304 297 0
-304 293 0
-304 -301 0
304 301 -297 -293 0
305 277 -297 0
305 -277 297 0
-305 277 297 0
-305 -277 -297 0
306 281 -301 0
306 -281 301 0
-306 281 301 0
-306 -281 -301 0
-307 277 0
-307 301 0
-307 297 -281 0
-307 -297 281 0
307 -277 297 281 -301 0
307 -277 -297 -281 -301 0
308 247 -277 0
308 -247 277 0
-308 247 277 0
-308 -247 -277 0
309 251 -306 0
309 -251 306 0
-309 251 306 0
-309 -251 -306 0
-310 247 0
-310 306 0
-310 277 -251 0
-310 -277 251 0
310 -247 277 251 -306 0
310 -247 -277 -251 -306 0
311 217 -247 0
311 -217 247 0
-311 217 247 0
-311 -217 -247 0
312 221 -309 0
312 -221 309 0
-312 221 309 0
-312 -221 -309 0
-313 217 0
-313 309 0
-313 247 -221 0
-313 -247 221 0
313 -217 247 221 -309 0
313 -217 -247 -221 -309 0
314 217 -312 0
-314 217 312 0
-315 217 0
314 -315 -312 0
-314 -315 312 0
314 315 -217 312 0
-314 315 -217 -312 0
-316 217 0
314 -316 312 0
-314 -316 -312 0
314 316 -217 -312 0
-314 316 -217 312 0
-317 217 0
-317 312 0
-317 -314 0
317 314 -217 -312 0
318 -217 314 0
-318 217 314 0
-319 314 0
318 -319 -217 0
-318 -319 217 0
318 319 217 -314 0
-318 319 -217 -314 0
-320 314 0
318 -320 217 0
-318 -320 -217 0
318 320 -217 -314 0
-318 320 217 -314 0
-321 318 0
-321 314 0
-321 -217 0
321 -318 217 -314 0
322 318 -314 0
-322 318 314 0
-323 318 0
322 -323 -314 0
-322 -323 314 0
322 323 -318 314 0
-322 323 -318 -314 0
-324 318 0
322 -324 314 0
-322 -324 -314 0
322 324 -318 -314 0
-322 324 -318 314 0
-325 318 0
-325 314 0
-325 -322 0
325 322 -318 -314 0
326 -318 322 0
-326 318 322 0
-327 322 0
326 -327 -318 0
-326 -327 318 0
326 327 318 -322 0
-326 327 -318 -322 0
-328 322 0
326 -328 318 0
-326 -328 -318 0
326 328 -318 -322 0
-326 328 318 -322 0
-329 326 0
-329 322 0
-329 -318 0
329 -326 318 -322 0
330 326 -322 0
-330 326 322 0
-331 326 0
330 -331 -322 0
-330 -331 322 0
330 331 -326 322 0
-330 331 -326 -322 0
-332 326 0
330 -332 322 0
-330 -332 -322 0
330 332 -326 -322 0
-330 332 -326 322 0
-333 326 0
-333 322 0
-333 -330 0
333 330 -326 -322 0
334 311 -309 0
-334 311 309 0
-335 311 0
334 -335 -309 0
-334 -335 309 0
334 335 -311 309 0
-334 335 -311 -309 0
-336 311 0
334 -336 309 0
-334 -336 -309 0
334 336 -311 -309 0
-334 336 -311 309 0
-337 311 0
-337 309 0
-337 -334 0
337 334 -311 -309 0
338 -311 334 0
-338 311 334 0
-339 334 0
338 -339 -311 0
-338 -339 311 0
338 339 311 -334 0
-338 339 -311 -334 0
-340 334 0
338 -340 311 0
-338 -340 -311 0
338 340 -311 -334 0
-338 340 311 -334 0
-341 338 0
-341 334 0
-341 -311 0
341 -338 311 -334 0
342 338 -334 0
-342 338 334 0
-343 338 0
342 -343 -334 0
-342 -343 334 0
342 343 -338 334 0
-342 343 -338 -334 0
-344 338 0
342 -344 334 0
-342 -344 -334 0
342 344 -338 -334 0
-342 344 -338 334 0
-345 338 0
-345 334 0
-345 -342 0
345 342 -338 -334 0
346 -338 342 0
-346 338 342 0
-347 342 0
346 -347 -338 0
-346 -347 338 0
346 347 338 -342 0
-346 347 -338 -342 0
-348 342 0
346 -348 338 0
-346 -348 -338 0
346 348 -338 -342 0
-346 348 338 -342 0
-349 346 0
-349 342 0
-349 -338 0
349 -346 338 -342 0
350 346 -342 0
-350 346 342 0
-351 346 0
350 -351 -342 0
-350 -351 342 0
350 351 -346 342 0
-350 351 -346 -342 0
-352 346 0
350 -352 342 0
-350 -352 -342 0
350 352 -346 -342 0
-350 352 -346 342 0
-353 346 0
-353 342 0
-353 -350 0
353 350 -346 -342 0
354 308 -306 0
-354 308 306 0
-355 308 0
354 -355 -306 0
-354 -355 306 0
354 355 -308 306 0
-354 355 -308 -306 0
-356 308 0
354 -356 306 0
-354 -356 -306 0
354 356 -308 -306 0
-354 356 -308 306 0
-357 308 0
-357 306 0
-357 -354 0
357 354 -308 -306 0
358 -308 354 0
-358 308 354 0
-359 354 0
358 -359 -308 0
-358 -359 308 0
358 359 308 -354 0
-358 359 -308 -354 0
-360 354 0
358 -360 308 0
-358 -360 -308 0
358 360 -308 -354 0
-358 360 308 -354 0
-361 358 0
-361 354 0
-361 -308 0
361 -358 308 -354 0
362 358 -354 0
-362 358 354 0
-363 358 0
362 -363 -354 0
-362 -363 354 0
362 363 -358 354 0
-362 363 -358 -354 0
-364 358 0
362 -364 354 0
-362 -364 -354 0
362 364 -358 -354 0
-362 364 -358 354 0
-365 358 0
-365 354 0
-365 -362 0
365 362 -358 -354 0
366 -358 362 0
-366 358 362 0
-367 362 0
366 -367 -358 0
-366 -367 358 0
366 367 358 -362 0
-366 367 -358 -362 0
-368 362 0
366 -368 358 0
-366 -368 -358 0
366 368 -358 -362 0
-366 368 358 -362 0
-369 366 0
-369 362 0
-369 -358 0
369 -366 358 -362 0
370 366 -362 0
-370 366 362 0
-371 366 0
370 -371 -362 0
-370 -371 362 0
370 371 -366 362 0
-370 371 -366 -362 0
-372 366 0
370 -372 362 0
-370 -372 -362 0
370 372 -366 -362 0
-370 372 -366 362 0
-373 366 0
-373 362 0
-373 -370 0
373 370 -366 -362 0
374 305 -301 0
-374 305 301 0
-375 305 0
374 -375 -301 0
-374 -375 301 0
374 375 -305 301 0
-374 375 -305 -301 0
-376 305 0
374 -376 301 0
-374 -376 -301 0
374 376 -305 -301 0
-374 376 -305 301 0
-377 305 0
-377 301 0
-377 -374 0
377 374 -305 -301 0
378 -305 374 0
-378 305 374 0
-379 374 0
378 -379 -305 0
-378 -379 305 0
378 379 305 -374 0
-378 379 -305 -374 0
-380 374 0
378 -380 305 0
-378 -380 -305 0
378 380 -305 -374 0
-378 380 305 -374 0
-381 378 0
-381 374 0
-381 -305 0
381 -378 305 -374 0
382 378 -374 0
-382 378 374 0
-383 378 0
382 -383 -374 0
-382 -383 374 0
382 383 -378 374 0
-382 383 -378 -374 0
-384 378 0
382 -384 374 0
-382 -384 -374 0
382 384 -378 -374 0
-382 384 -378 374 0
-385 378 0
-385 374 0
-385 -382 0
385 382 -378 -374 0
386 -378 382 0
-386 378 382 0
-387 382 0
386 -387 -378 0
-386 -387 378 0
386 387 378 -382 0
-386 387 -378 -382 0
-388 382 0
386 -388 378 0
-386 -388 -378 0
386 388 -378 -382 0
-386 388 378 -382 0
-389 386 0
-389 382 0
-389 -378 0
389 -386 378 -382 0
390 386 -382 0
-390 386 382 0
-391 386 0
390 -391 -382 0
-390 -391 382 0
390 391 -386 382 0
-390 391 -386 -382 0
-392 386 0
390 -392 382 0
-390 -392 -382 0
390 392 -386 -382 0
-390 392 -386 382 0
-393 386 0
-393 382 0
-393 -390 0
393 390 -386 -382 0
-326 0
-346 0
-350 0
-366 0
-370 0
-386 0
-390 0
